B=5;
D=1;
P=9;
S=9;
demands = [2 3 3 1 3 1 2 3 3 ];
capacities = [3 10 4 2 2 9 9 8 3 ];
dist_start = [6 9 9 6 9 8 6 2 8 ];
dist = [4 4 9 4 5 2 1 9 2 9 9 5 6 2 3 9 3 4 9 7 8 4 8 9 1 6 6 6 10 3 4 3 6 4 8 2 7 9 1 8 9 9 4 6 2 8 4 4 1 3 1 1 8 8 9 9 5 4 6 6 8 1 8 3 6 8 5 3 6 7 2 4 5 8 1 8 5 4 2 8 8 ];
